# avogadro generated ORCA file
# pentanol
# 
! Opt revPBE def2-TZVP 

%maxcore 16384

%output
   print[p_mos] 1
   print[p_basis] 2
end

* xyz 0 1
   C     -2.107086    1.493859   -0.081744
   C     -0.922732    2.325169    0.392585
   H     -2.172837    1.490609   -1.175348
   H     -2.032452    0.459755    0.267946
   H     -3.045363    1.921108    0.288295
   C      0.403244    1.765063   -0.132574
   H      3.033429    0.930198    0.235782
   O     -1.099021    3.667406   -0.052378
   C      1.607821    2.558243    0.381528
   H      0.407770    1.795309   -1.229617
   H      0.501637    0.714821    0.167795
   C      2.917019    1.961824   -0.111440
   H      1.544406    3.600560    0.049020
   H      1.607101    2.565878    1.477673
   H      2.962042    1.963832   -1.205219
   H      3.764051    2.544179    0.264591
   H     -0.912317    2.341670    1.487942
   H     -1.098546    3.661948   -1.024853
*


