# avogadro generated ORCA file
# bromopentane
# 
! Opt revPBE def2-TZVP 

%maxcore 16384

%output
   print[p_mos] 1
   print[p_basis] 2
end

* xyz 0 1
   C     -3.403821    0.564418   -0.150773
   C     -2.165782    1.273314    0.380693
   H     -3.358997   -0.507475    0.069642
   H     -4.315569    0.959545    0.310752
   H     -3.502368    0.681088   -1.235987
   C     -0.886861    0.736844   -0.267012
   H      1.600039   -0.504288   -0.086700
   Br    -2.362951    3.188159    0.005531
   C      0.391022    1.222318    0.426210
   H     -0.903342   -0.359971   -0.221452
   H     -0.852437    1.005543   -1.330653
   C      1.629313    0.585444   -0.186795
   H      0.483077    2.310826    0.349460
   H      0.352689    0.973493    1.493151
   H      1.711885    0.831685   -1.250254
   H      2.530424    0.948249    0.317497
   H     -2.124287    1.184040    1.471050
*
