# avogadro generated ORCA file
# 2-pentanol
# 
! Opt revPBE def2-TZVP 

%maxcore 16384

%output
   print[p_mos] 1
   print[p_basis] 2
end

* xyz 0 2
   C     -1.854957   -0.478654   -0.001108
   C     -0.928629    0.686236   -0.000102
   C      0.465832    0.503283   -0.000087
   C      1.975819    0.288186   -0.000103
   C      3.496119    0.113083   -0.000105
   O     -1.497277    1.929109    0.000573
   H     -0.826335    2.627968    0.001095
*


